CST07
Position Depot: Center
Horizon for Depot: Small
Position of customers: Cluster
Distribution of the demand: Medium
Width of time windows: Tight
Distribution of the service: Small

VEHICLE 
NUMBER 	 CAPACITY 
 7 	 	 139 
 
CUSTOMER
CUST NO. 	 XCOORD.  	 YCOORD. 	 DEMAND 	 READY TIME 	 DUE DATE 	 SERVICE TIME 
 0 	 	 500 	 	 500 	 	 0 	 	 0 	 	 1509 	 	 0 
  1 	 	 466 	 	 258 	 	 4 	 	 1428 	 	 1489 	 	 58 
  2 	 	 793 	 	 376 	 	 2 	 	 1092 	 	 1274 	 	 94 
  3 	 	 337 	 	 430 	 	 8 	 	 1336 	 	 1454 	 	 79 
  4 	 	 905 	 	 450 	 	 8 	 	 452 	 	 579 	 	 75 
  5 	 	 305 	 	 584 	 	 6 	 	 1181 	 	 1371 	 	 75 
  6 	 	 349 	 	 71 	 	 54 	 	 1018 	 	 1127 	 	 94 
  7 	 	 136 	 	 727 	 	 81 	 	 1397 	 	 1509 	 	 65 
  8 	 	 335 	 	 737 	 	 3 	 	 1264 	 	 1335 	 	 74 
  9 	 	 365 	 	 637 	 	 10 	 	 1415 	 	 1486 	 	 80 
  10 	 	 284 	 	 531 	 	 72 	 	 902 	 	 1012 	 	 59 
  11 	 	 288 	 	 647 	 	 7 	 	 194 	 	 283 	 	 97 
  12 	 	 129 	 	 814 	 	 90 	 	 1038 	 	 1091 	 	 67 
  13 	 	 378 	 	 715 	 	 62 	 	 1156 	 	 1289 	 	 80 
  14 	 	 270 	 	 688 	 	 2 	 	 314 	 	 415 	 	 51 
  15 	 	 311 	 	 812 	 	 4 	 	 591 	 	 715 	 	 50 
  16 	 	 338 	 	 451 	 	 9 	 	 561 	 	 663 	 	 84 
  17 	 	 754 	 	 404 	 	 6 	 	 575 	 	 667 	 	 91 
  18 	 	 152 	 	 600 	 	 86 	 	 810 	 	 972 	 	 83 
  19 	 	 239 	 	 437 	 	 8 	 	 245 	 	 434 	 	 54 
  20 	 	 339 	 	 382 	 	 7 	 	 778 	 	 970 	 	 85 
  21 	 	 314 	 	 648 	 	 6 	 	 410 	 	 480 	 	 68 
  22 	 	 333 	 	 130 	 	 4 	 	 1052 	 	 1112 	 	 60 
  23 	 	 176 	 	 700 	 	 7 	 	 227 	 	 418 	 	 98 
  24 	 	 485 	 	 221 	 	 94 	 	 465 	 	 609 	 	 93 
  25 	 	 996 	 	 450 	 	 5 	 	 703 	 	 827 	 	 80 
  26 	 	 302 	 	 678 	 	 1 	 	 476 	 	 640 	 	 79 
  27 	 	 474 	 	 248 	 	 2 	 	 87 	 	 278 	 	 58 
  28 	 	 355 	 	 431 	 	 7 	 	 478 	 	 574 	 	 59 
  29 	 	 223 	 	 11 	 	 3 	 	 808 	 	 899 	 	 98 
  30 	 	 217 	 	 447 	 	 5 	 	 1227 	 	 1413 	 	 93 
  31 	 	 280 	 	 594 	 	 10 	 	 437 	 	 508 	 	 50 
  32 	 	 310 	 	 514 	 	 1 	 	 135 	 	 303 	 	 55 
  33 	 	 362 	 	 676 	 	 8 	 	 52 	 	 246 	 	 88 
  34 	 	 360 	 	 788 	 	 9 	 	 1325 	 	 1481 	 	 85 
  35 	 	 281 	 	 911 	 	 5 	 	 402 	 	 512 	 	 63 
  36 	 	 917 	 	 496 	 	 2 	 	 803 	 	 986 	 	 68 
  37 	 	 389 	 	 354 	 	 86 	 	 1135 	 	 1230 	 	 76 
  38 	 	 377 	 	 831 	 	 9 	 	 945 	 	 1038 	 	 98 
  39 	 	 365 	 	 624 	 	 7 	 	 503 	 	 656 	 	 82 
  40 	 	 414 	 	 69 	 	 4 	 	 847 	 	 991 	 	 67 
  41 	 	 139 	 	 725 	 	 9 	 	 783 	 	 936 	 	 65 
  42 	 	 366 	 	 63 	 	 8 	 	 367 	 	 502 	 	 64 
  43 	 	 782 	 	 376 	 	 2 	 	 623 	 	 722 	 	 56 
  44 	 	 518 	 	 248 	 	 4 	 	 602 	 	 654 	 	 88 
  45 	 	 456 	 	 625 	 	 57 	 	 1146 	 	 1335 	 	 83 
  46 	 	 380 	 	 41 	 	 1 	 	 385 	 	 521 	 	 52 
  47 	 	 309 	 	 594 	 	 8 	 	 248 	 	 375 	 	 100 
  48 	 	 327 	 	 494 	 	 83 	 	 1347 	 	 1509 	 	 80 
  49 	 	 325 	 	 674 	 	 7 	 	 1043 	 	 1155 	 	 79 
  50 	 	 375 	 	 79 	 	 3 	 	 284 	 	 483 	 	 63 
 